HUN,8,6,661
0,82,4,50,1,31,3,38,2,73,5,6
0,62,2,55,4,81,3,95,1,50,5,10
5,44,2,51,0,29,4,49,1,95,3,5
1,75,0,61,3,23,5,48,2,85,4,77
4,16,5,17,1,54,3,70,2,11,0,43
1,36,2,47,0,81,4,4,5,25,3,49
2,22,1,93,5,64,0,53,3,62,4,75
4,12,1,83,3,15,2,97,0,32,5,70
